PROBLEM NAME: grid20_n19_bounded-strongly-corr
KNAPSACK DATA TYPE: bounded strongly corr
DIMENSION: 20
NUMBER OF ITEMS: 19
CAPACITY OF KNAPSACK: 250
MIN SPEED: 0.1
MAX SPEED: 1.0
RENTING RATIO: 0.8
EDGE_WEIGHT_TYPE: EUC_2D
NODE_COORD_SECTION
1 10 10
2 30 10
3 50 10
4 70 10
5 90 10
6 10 30
7 30 30
8 50 30
9 70 30
10 90 30
11 10 50
12 30 50
13 50 50
14 70 50
15 90 50
16 10 70
17 30 70
18 50 70
19 70 70
20 90 70
ITEMS SECTION
1 109 9 2
2 118 18 3
3 127 27 4
4 136 36 5
5 109 9 6
6 113 13 7
7 120 20 8
8 128 28 9
9 137 37 10
10 118 18 11
11 120 20 12
12 125 25 13
13 132 32 14
14 140 40 15
15 127 27 16
16 128 28 17
17 132 32 18
18 138 38 19
19 145 45 20
